(set-logic QF_SLIA)
(declare-fun var0 () String)
(assert (not (str.in_re var0 (re.++ ((_ re.loop 14 497) (re.++ (re.union (str.to_re "7") (re.union (str.to_re "A6") (re.union (str.to_re "n") (str.to_re "=")))) (re.++ (re.union (str.to_re "+h") (re.union (str.to_re "Go}") (re.union (str.to_re "?d") (str.to_re "6")))) (re.++ (re.union (str.to_re "}mO") (re.union (str.to_re "y8") (re.union (str.to_re "KUx") (str.to_re "6I}")))) (re.union (str.to_re "Ib") (re.union (str.to_re "c\\") (re.union (str.to_re "o") (str.to_re "aD5")))))))) (re.++ ((_ re.loop 4 486) (re.++ (re.union (str.to_re "%1") (re.union (str.to_re "Fi$") (re.union (str.to_re "d") (str.to_re ">")))) (re.++ (re.union (str.to_re "~<") (re.union (str.to_re "o") (re.union (str.to_re ".Iw") (str.to_re "fR,")))) (re.++ (re.union (str.to_re "I") (re.union (str.to_re "%I") (re.union (str.to_re "NGJ") (str.to_re "[(")))) (re.union (str.to_re "f%Q") (re.union (str.to_re "*.x") (re.union (str.to_re "H4:") (str.to_re "4")))))))) (re.++ ((_ re.loop 0 114) (re.++ (re.union (str.to_re "y") (re.union (str.to_re "h5") (re.union (str.to_re "']") (str.to_re "--r")))) (re.++ (re.union (str.to_re "p%Y") (re.union (str.to_re "1]o") (re.union (str.to_re "=") (str.to_re "J")))) (re.++ (re.union (str.to_re "%\\!") (re.union (str.to_re "{?") (re.union (str.to_re "Br") (str.to_re "8yv")))) (re.union (str.to_re "OM") (re.union (str.to_re "W:^") (re.union (str.to_re "Pe") (str.to_re "86")))))))) ((_ re.loop 13 847) (re.++ (re.union (str.to_re "h") (re.union (str.to_re "+") (re.union (str.to_re "h3") (str.to_re "y")))) (re.++ (re.union (str.to_re "*") (re.union (str.to_re "Th") (re.union (str.to_re "/r") (str.to_re "K6")))) (re.++ (re.union (str.to_re "G") (re.union (str.to_re "H]") (re.union (str.to_re "gL") (str.to_re "*")))) (re.union (str.to_re "g%") (re.union (str.to_re "i") (re.union (str.to_re "1") (str.to_re ":"))))))))))))))
(assert (not (str.in_re var0 (re.++ ((_ re.loop 4 704) (re.++ (re.union (str.to_re "6") (re.union (str.to_re "Gf") (re.union (str.to_re "u1") (str.to_re "\u0022")))) (re.++ (re.union (str.to_re "pM") (re.union (str.to_re "`4") (re.union (str.to_re "M") (str.to_re "{")))) (re.++ (re.union (str.to_re "15") (re.union (str.to_re "1") (re.union (str.to_re "Bix") (str.to_re "D[")))) (re.union (str.to_re "tT") (re.union (str.to_re "n5") (re.union (str.to_re "/-d") (str.to_re "3")))))))) (re.++ ((_ re.loop 2 766) (re.++ (re.union (str.to_re "%") (re.union (str.to_re "z|e") (re.union (str.to_re "Mpm") (str.to_re "hI")))) (re.++ (re.union (str.to_re "*g;") (re.union (str.to_re "A") (re.union (str.to_re "#A") (str.to_re "/[4")))) (re.++ (re.union (str.to_re "}HJ") (re.union (str.to_re "!<") (re.union (str.to_re "66") (str.to_re "?")))) (re.union (str.to_re "UL") (re.union (str.to_re "@)") (re.union (str.to_re "[m\\") (str.to_re "|@")))))))) (re.++ ((_ re.loop 8 401) (re.++ (re.union (str.to_re "b`J") (re.union (str.to_re "g") (re.union (str.to_re "J") (str.to_re "nv")))) (re.++ (re.union (str.to_re "-A") (re.union (str.to_re "ZtS") (re.union (str.to_re "}$") (str.to_re "LO@")))) (re.++ (re.union (str.to_re "mz0") (re.union (str.to_re "Cq") (re.union (str.to_re "OEU") (str.to_re "h:")))) (re.union (str.to_re "C") (re.union (str.to_re "6p") (re.union (str.to_re "CJ") (str.to_re "P.k")))))))) ((_ re.loop 13 359) (re.++ (re.union (str.to_re "6x") (re.union (str.to_re "|q") (re.union (str.to_re "1") (str.to_re "H")))) (re.++ (re.union (str.to_re "<A") (re.union (str.to_re "9m_") (re.union (str.to_re "(>:") (str.to_re "mCe")))) (re.++ (re.union (str.to_re "_(@") (re.union (str.to_re "M@") (re.union (str.to_re "G") (str.to_re "!EN")))) (re.union (str.to_re "u") (re.union (str.to_re "3U<") (re.union (str.to_re "B") (str.to_re "S"))))))))))))))
(assert (not (str.in_re var0 (re.++ (re.* re.allchar) (re.++ (re.union (str.to_re "<") (re.union (str.to_re ">") (re.union (str.to_re "'") (re.union (str.to_re "\u0022") (str.to_re "&"))))) (re.* re.allchar))))))
(assert (<= 50 (str.len var0)))
(check-sat)
(get-model)
